words_hard_train/654.qaiger
aag 130 24 0 1 106
2
4
8
16
18
22
26
30
34
38
48
56
72
88
104
120
136
158
172
182
190
204
218
246
260
6 2 4
10 7 8
12 6 9
14 11 13
20 17 19
24 20 23
28 24 27
32 28 31
36 32 35
40 36 39
42 15 40
44 14 41
46 43 45
50 48 16
52 16 18
54 53 21
58 55 57
60 54 56
62 59 61
64 50 62
66 65 61
68 21 22
70 69 25
74 71 73
76 70 72
78 75 77
80 67 78
82 81 77
84 25 26
86 85 29
90 87 89
92 86 88
94 91 93
96 83 94
98 97 93
100 29 30
102 101 33
106 103 105
108 102 104
110 107 109
112 99 110
114 113 109
116 33 34
118 117 37
122 119 121
124 118 120
126 123 125
128 115 126
130 129 125
132 37 38
134 133 41
138 135 137
140 134 136
142 139 141
144 131 142
146 145 141
148 47 146
150 46 147
152 149 151
154 130 143
156 155 145
160 159 38
162 157 161
164 156 160
166 163 165
168 82 95
170 169 97
174 173 26
176 170 174
178 66 79
180 179 81
184 183 22
186 181 185
188 177 187
192 190 16
194 193 49
196 192 48
198 195 197
200 98 111
202 201 113
206 205 30
208 203 207
210 198 209
212 188 210
214 51 63
216 215 65
220 219 18
222 216 221
224 217 220
226 223 225
228 171 175
230 227 229
232 202 206
234 230 233
236 180 184
238 234 237
240 212 238
242 114 127
244 243 129
248 247 34
250 244 248
252 245 249
254 251 253
256 240 254
258 166 256
260 153 258
i0 1 x1[7]
i1 2 y1[7]
i2 2 y2[7]
i3 2 y1[0]
i4 2 y1[1]
i5 2 y1[2]
i6 2 y1[3]
i7 2 y1[4]
i8 2 y1[5]
i9 2 y1[6]
i10 2 y2[0]
i11 2 y2[1]
i12 2 y2[2]
i13 2 y2[3]
i14 2 y2[4]
i15 2 y2[5]
i16 2 y2[6]
i17 1 x1[6]
i18 1 x1[3]
i19 1 x1[2]
i20 1 x1[0]
i21 1 x1[4]
i22 1 x1[1]
i23 1 x1[5]
o0 bool[0]
c
simplified
  ==
    or
      invert
        2 y1
      1 x1
    subtract
      2 y2
      2 y1
