words_hard_train/654.qaiger.qdimacs
p cnf 130 319
a 1 102 123 109 79 86 91 95 0
e 2 3 4 5 6 7 8 9 10 11 12 13 14 15 16 17 18 19 20 21 22 23 24 25 26 27 28 29 30 31 32 33 34 35 36 37 38 39 40 41 42 43 44 45 46 47 48 49 50 51 52 53 54 55 56 57 58 59 60 61 62 63 64 65 66 67 68 69 70 71 72 73 74 75 76 77 78 80 81 82 83 84 85 87 88 89 90 92 93 94 96 97 98 99 100 101 103 104 105 106 107 108 110 111 112 113 114 115 116 117 118 119 120 121 122 124 125 126 127 128 129 130 0
-1 -2 3 0
1 -3 0
2 -3 0
3 -4 5 0
-3 -5 0
4 -5 0
-3 4 6 0
3 -6 0
-4 -6 0
5 6 7 0
-5 -7 0
-6 -7 0
8 9 10 0
-8 -10 0
-9 -10 0
-10 11 12 0
10 -12 0
-11 -12 0
-12 13 14 0
12 -14 0
-13 -14 0
-14 15 16 0
14 -16 0
-15 -16 0
-16 17 18 0
16 -18 0
-17 -18 0
-18 19 20 0
18 -20 0
-19 -20 0
7 -20 21 0
-7 -21 0
20 -21 0
-7 20 22 0
7 -22 0
-20 -22 0
21 22 23 0
-21 -23 0
-22 -23 0
-24 -8 25 0
24 -25 0
8 -25 0
-8 -9 26 0
8 -26 0
9 -26 0
26 10 27 0
-26 -27 0
-10 -27 0
27 28 29 0
-27 -29 0
-28 -29 0
-27 -28 30 0
27 -30 0
28 -30 0
29 30 31 0
-29 -31 0
-30 -31 0
-25 -31 32 0
25 -32 0
31 -32 0
32 30 33 0
-32 -33 0
-30 -33 0
10 -11 34 0
-10 -34 0
11 -34 0
34 12 35 0
-34 -35 0
-12 -35 0
35 36 37 0
-35 -37 0
-36 -37 0
-35 -36 38 0
35 -38 0
36 -38 0
37 38 39 0
-37 -39 0
-38 -39 0
33 -39 40 0
-33 -40 0
39 -40 0
40 38 41 0
-40 -41 0
-38 -41 0
12 -13 42 0
-12 -42 0
13 -42 0
42 14 43 0
-42 -43 0
-14 -43 0
43 44 45 0
-43 -45 0
-44 -45 0
-43 -44 46 0
43 -46 0
44 -46 0
45 46 47 0
-45 -47 0
-46 -47 0
41 -47 48 0
-41 -48 0
47 -48 0
48 46 49 0
-48 -49 0
-46 -49 0
14 -15 50 0
-14 -50 0
15 -50 0
50 16 51 0
-50 -51 0
-16 -51 0
51 52 53 0
-51 -53 0
-52 -53 0
-51 -52 54 0
51 -54 0
52 -54 0
53 54 55 0
-53 -55 0
-54 -55 0
49 -55 56 0
-49 -56 0
55 -56 0
56 54 57 0
-56 -57 0
-54 -57 0
16 -17 58 0
-16 -58 0
17 -58 0
58 18 59 0
-58 -59 0
-18 -59 0
59 60 61 0
-59 -61 0
-60 -61 0
-59 -60 62 0
59 -62 0
60 -62 0
61 62 63 0
-61 -63 0
-62 -63 0
57 -63 64 0
-57 -64 0
63 -64 0
64 62 65 0
-64 -65 0
-62 -65 0
18 -19 66 0
-18 -66 0
19 -66 0
66 20 67 0
-66 -67 0
-20 -67 0
67 68 69 0
-67 -69 0
-68 -69 0
-67 -68 70 0
67 -70 0
68 -70 0
69 70 71 0
-69 -71 0
-70 -71 0
65 -71 72 0
-65 -72 0
71 -72 0
72 70 73 0
-72 -73 0
-70 -73 0
23 -73 74 0
-23 -74 0
73 -74 0
-23 73 75 0
23 -75 0
-73 -75 0
74 75 76 0
-74 -76 0
-75 -76 0
-65 71 77 0
65 -77 0
-71 -77 0
77 72 78 0
-77 -78 0
-72 -78 0
79 -19 80 0
-79 -80 0
19 -80 0
78 80 81 0
-78 -81 0
-80 -81 0
-78 -80 82 0
78 -82 0
80 -82 0
81 82 83 0
-81 -83 0
-82 -83 0
-41 47 84 0
41 -84 0
-47 -84 0
84 48 85 0
-84 -85 0
-48 -85 0
86 -13 87 0
-86 -87 0
13 -87 0
-85 -87 88 0
85 -88 0
87 -88 0
-33 39 89 0
33 -89 0
-39 -89 0
89 40 90 0
-89 -90 0
-40 -90 0
91 -11 92 0
-91 -92 0
11 -92 0
90 92 93 0
-90 -93 0
-92 -93 0
88 93 94 0
-88 -94 0
-93 -94 0
-95 -8 96 0
95 -96 0
8 -96 0
96 24 97 0
-96 -97 0
-24 -97 0
-96 -24 98 0
96 -98 0
24 -98 0
97 98 99 0
-97 -99 0
-98 -99 0
-49 55 100 0
49 -100 0
-55 -100 0
100 56 101 0
-100 -101 0
-56 -101 0
102 -15 103 0
-102 -103 0
15 -103 0
101 103 104 0
-101 -104 0
-103 -104 0
-99 104 105 0
99 -105 0
-104 -105 0
-94 -105 106 0
94 -106 0
105 -106 0
25 31 107 0
-25 -107 0
-31 -107 0
107 32 108 0
-107 -108 0
-32 -108 0
109 -9 110 0
-109 -110 0
9 -110 0
-108 110 111 0
108 -111 0
-110 -111 0
108 -110 112 0
-108 -112 0
110 -112 0
111 112 113 0
-111 -113 0
-112 -113 0
85 87 114 0
-85 -114 0
-87 -114 0
113 114 115 0
-113 -115 0
-114 -115 0
-101 -103 116 0
101 -116 0
103 -116 0
-115 116 117 0
115 -117 0
-116 -117 0
-90 -92 118 0
90 -118 0
92 -118 0
-117 118 119 0
117 -119 0
-118 -119 0
-106 -119 120 0
106 -120 0
119 -120 0
-57 63 121 0
57 -121 0
-63 -121 0
121 64 122 0
-121 -122 0
-64 -122 0
123 -17 124 0
-123 -124 0
17 -124 0
-122 -124 125 0
122 -125 0
124 -125 0
122 124 126 0
-122 -126 0
-124 -126 0
125 126 127 0
-125 -127 0
-126 -127 0
-120 -127 128 0
120 -128 0
127 -128 0
-83 -128 129 0
83 -129 0
128 -129 0
76 -129 130 0
-76 -130 0
129 -130 0
130 0
